bench/sll0a/entl/bolognesa-18-e10.tptp.smt2
(set-logic QF_S)
(set-info :source |
A. Rybalchenko and J. A. Navarro Pérez.
[Separation Logic + Superposition Calculus = Heap Theorem Prover]
[PLDI 2011]
http://navarroj.com/research/papers.html#pldi11
|)
(set-info :smt-lib-version 2.0)
(set-info :category "random") 
(set-info :status unknown)
(set-info :version 2014-05-22)

(set-logic QF_NOLL)

(declare-sort Sll_t 0)

(declare-fun f () (Field Sll_t Sll_t))

(define-fun ls ((?in Sll_t) (?out Sll_t)) Space
(tospace (or (= ?in ?out)
(exists ((?u Sll_t))
(and (distinct ?in ?out) (tobool
(ssep (pto ?in (ref f ?u)) (ls ?u ?out)
)))))))

(declare-fun nil () Sll_t)

(declare-fun x_emp () Sll_t)
(declare-fun y_emp () Sll_t)
(declare-fun z_emp () Sll_t)
(declare-fun t_emp () Sll_t)
(declare-fun x0 () Sll_t)
(declare-fun x1 () Sll_t)
(declare-fun x2 () Sll_t)
(declare-fun x3 () Sll_t)
(declare-fun x4 () Sll_t)
(declare-fun x5 () Sll_t)
(declare-fun x6 () Sll_t)
(declare-fun x7 () Sll_t)
(declare-fun x8 () Sll_t)
(declare-fun x9 () Sll_t)
(declare-fun x10 () Sll_t)
(declare-fun x11 () Sll_t)
(declare-fun x12 () Sll_t)
(declare-fun x13 () Sll_t)
(declare-fun x14 () Sll_t)
(declare-fun x15 () Sll_t)
(declare-fun x16 () Sll_t)
(declare-fun x17 () Sll_t)
(declare-fun x18 () Sll_t)
(declare-fun x19 () Sll_t)
(declare-fun x20 () Sll_t)
(declare-fun x21 () Sll_t)
(declare-fun x22 () Sll_t)
(assert
  (and 
    (= nil nil)
    (tobool  (ssep  (pto x18  (ref f x4 ) ) (ssep  (ls x11 x18 ) (ssep  (pto x14  (ref f x5 ) ) (ssep  (pto x6  (ref f x18 ) ) (ssep  (pto x8  (ref f x1 ) ) (ssep  (pto x15  (ref f x9 ) ) (ssep  (pto x16  (ref f x2 ) ) (ssep  (pto x2  (ref f x15 ) ) (ssep  (pto x5  (ref f x17 ) ) (ssep  (ls x10 x17 ) (ssep  (pto x4  (ref f x17 ) ) (ssep  (pto x1  (ref f x10 ) ) (ssep  (pto x9  (ref f x6 ) ) (ssep  (pto x12  (ref f x3 ) ) (ssep  (pto x17  (ref f x18 ) ) (ssep  (pto x3  (ref f x12 ) ) (ssep  (ls x13 x15 ) (ssep  (ls x7 x14 )(ssep (pto x_emp (ref f y_emp)) (pto z_emp (ref f t_emp))))))))))))))))))))))
  )
)
(assert
  (not
        (tobool  (ssep  (ls x13 x15 ) (ssep  (ls x12 x3 ) (ssep  (ls x11 x18 ) (ssep  (ls x7 x14 ) (ssep  (ls x3 x12 ) (ssep  (ls x16 x2 ) (ssep  (ls x8 x1 ) (ssep  (ls x14 x17 ) (ssep  (ls x1 x18 ) (ssep  (ls x2 x18 ) (ssep  (ls x18 x17 )(ssep (pto x_emp (ref f y_emp)) (pto z_emp (ref f t_emp)))))))))))))))
  ))

(check-sat)
